c Reduced graph for 4-FullIns_3_2 generated by Cyril Grelier
p edge 42 159
e 1 2
e 1 3
e 1 4
e 1 7
e 1 8
e 1 9
e 1 10
e 1 17
e 1 18
e 1 25
e 1 26
e 1 27
e 1 28
e 1 29
e 1 30
e 1 31
e 1 32
e 2 15
e 2 16
e 2 19
e 2 20
e 2 21
e 2 22
e 2 25
e 2 28
e 2 29
e 2 30
e 2 33
e 2 34
e 2 39
e 2 40
e 2 41
e 2 42
e 3 6
e 3 11
e 3 12
e 3 13
e 3 14
e 3 16
e 3 19
e 3 20
e 3 21
e 3 22
e 3 23
e 3 24
e 3 33
e 3 34
e 4 5
e 4 11
e 4 12
e 4 13
e 4 14
e 4 15
e 4 19
e 4 20
e 4 21
e 4 22
e 4 35
e 4 36
e 4 39
e 4 40
e 5 6
e 5 7
e 5 8
e 5 9
e 5 10
e 5 11
e 5 12
e 5 13
e 5 14
e 5 17
e 5 18
e 5 23
e 5 24
e 6 7
e 6 8
e 6 9
e 6 10
e 6 11
e 6 12
e 6 13
e 6 14
e 6 26
e 6 27
e 6 35
e 6 36
e 7 12
e 7 13
e 7 14
e 7 15
e 7 16
e 7 20
e 7 21
e 7 22
e 8 11
e 8 13
e 8 14
e 8 15
e 8 16
e 8 19
e 8 21
e 8 22
e 9 11
e 9 12
e 9 14
e 9 15
e 9 16
e 9 19
e 9 20
e 9 22
e 10 11
e 10 12
e 10 13
e 10 15
e 10 16
e 10 19
e 10 20
e 10 21
e 11 12
e 11 13
e 11 14
e 12 13
e 12 14
e 13 14
e 15 17
e 15 18
e 16 26
e 16 27
e 17 36
e 17 38
e 17 40
e 17 42
e 18 35
e 18 37
e 18 39
e 18 41
e 23 27
e 23 32
e 23 36
e 23 38
e 24 26
e 24 31
e 24 35
e 24 37
e 25 28
e 25 29
e 25 30
e 26 34
e 27 33
e 28 29
e 28 30
e 29 30
e 31 34
e 31 38
e 31 42
e 32 33
e 32 37
e 32 41
e 37 38
